c WARNING: for repeatability, setting FPU to use double precision
d VARIABLES            219702       
d CONSTRAINTS          813444       
c ============================[ Problem Statistics ]=============================
c |                                                                             |
c |  Number of variables:        219702                                         |
c |  Number of clauses:          813444                                         |
c |  Parse time:                   0.14 s                                       |
c |                                                                             |
c ============================[ Search Statistics ]==============================
c | Conflicts |          ORIGINAL         |          LEARNT          | Progress |
c |           |    Vars  Clauses Literals |    Limit  Clauses Lit/Cl |          |
c ===============================================================================
c |       100 |  181843   716210  1795643 |   262610      100      6 | 17.232 % |
c |       250 |  181843   716210  1795643 |   288871      250     16 | 17.232 % |
c |       475 |  181843   716210  1795643 |   317758      475     18 | 17.232 % |
c |       812 |  181843   716210  1795643 |   349534      812     15 | 17.232 % |
c |      1318 |  181843   716210  1795643 |   384487     1318     37 | 17.232 % |
c |      2077 |  181843   716210  1795643 |   422936     2077     36 | 17.232 % |
c |      3216 |  181843   716210  1795643 |   465230     3216     44 | 17.232 % |
c |      4924 |  181843   716210  1795643 |   511753     4924     37 | 17.232 % |
c |      7486 |  181843   716210  1795643 |   562928     7486     57 | 17.232 % |
c |     11330 |  181843   716210  1795643 |   619221    11330     58 | 17.232 % |
c |     17096 |  181843   716210  1795643 |   681143    17096     82 | 17.232 % |
c |     25745 |  181843   716210  1795643 |   749257    25745    100 | 17.232 % |
c |     38719 |  181843   716210  1795643 |   824183    38719    109 | 17.232 % |
c |     58180 |  181843   716210  1795643 |   906602    58180    115 | 17.232 % |
c |     87372 |  181843   716210  1795643 |   997262    87372    135 | 17.232 % |
c |    131161 |  181843   716210  1795643 |  1096988   131161    154 | 17.232 % |
c |    196845 |  181843   716210  1795643 |  1206687   196845    149 | 17.232 % |
c |    295371 |  181843   716210  1795643 |  1327356   295371    153 | 17.232 % |
c |    443160 |  181843   716210  1795643 |  1460091   443160    160 | 17.232 % |
c |    664843 |  181843   716210  1795643 |  1606100   664843    153 | 17.232 % |
c |    997368 |  181843   716210  1795643 |  1766711   997368    152 | 17.232 % |
c |   1496156 |  181843   716210  1795643 |  1943382  1496156    147 | 17.232 % |
c |   2244338 |  181843   716210  1795643 |  2137720   294790    169 | 17.232 % |
c ===============================================================================
c restarts              : 4095
c conflicts             : 2363833        (1317 /sec)
c decisions             : 6334623        (0.00 % random) (3531 /sec)
c propagations          : 3691805856     (2057587 /sec)
c conflict literals     : 353668776      (47.55 % deleted)
d RESTARTS             4095
d FAILURES             2363833      
d NODES                6334623      
d BACKTRACKS           6334623      
d PROPAGATIONS         3691805856   
d NOGOODSIZE           149.62 
d MEMORY               1639.00 
d TIME                 1794.24 

s UNKNOWN
